logs/drand/max/drand-10-110-1.lp
\ LP format - for model browsing. Use MPS format to capture full model detail.
Maximize
  x0,1_3 + x0,1_9 + x0,1_10 + x0,1_31 + x0,1_34 + x0,1_50 + x0,1_85
   + x0,1_91 + x0,1_95 + x0,1_96 + x0,2_3 + x0,2_9 + x0,2_10 + x0,2_31
   + x0,2_34 + x0,2_50 + x0,2_85 + x0,2_91 + x0,2_95 + x0,2_96 + x0,3_3
   + x0,3_9 + x0,3_10 + x0,3_31 + x0,3_34 + x0,3_50 + x0,3_85 + x0,3_91
   + x0,3_95 + x0,3_96 + x0,4_3 + x0,4_9 + x0,4_10 + x0,4_31 + x0,4_34
   + x0,4_50 + x0,4_85 + x0,4_91 + x0,4_95 + x0,4_96 + x0,5_3 + x0,5_9
   + x0,5_10 + x0,5_31 + x0,5_34 + x0,5_50 + x0,5_85 + x0,5_91 + x0,5_95
   + x0,5_96 + x0,6_3 + x0,6_9 + x0,6_10 + x0,6_31 + x0,6_34 + x0,6_50
   + x0,6_85 + x0,6_91 + x0,6_95 + x0,6_96 + x1,2_3 + x1,2_9 + x1,2_10
   + x1,2_31 + x1,2_34 + x1,2_50 + x1,2_85 + x1,2_91 + x1,2_95 + x1,2_96
   + x1,3_3 + x1,3_9 + x1,3_10 + x1,3_31 + x1,3_34 + x1,3_50 + x1,3_85
   + x1,3_91 + x1,3_95 + x1,3_96 + x1,4_3 + x1,4_9 + x1,4_10 + x1,4_31
   + x1,4_34 + x1,4_50 + x1,4_85 + x1,4_91 + x1,4_95 + x1,4_96 + x1,5_3
   + x1,5_9 + x1,5_10 + x1,5_31 + x1,5_34 + x1,5_50 + x1,5_85 + x1,5_91
   + x1,5_95 + x1,5_96 + x1,6_3 + x1,6_9 + x1,6_10 + x1,6_31 + x1,6_34
   + x1,6_50 + x1,6_85 + x1,6_91 + x1,6_95 + x1,6_96 + x2,3_3 + x2,3_9
   + x2,3_10 + x2,3_31 + x2,3_34 + x2,3_50 + x2,3_85 + x2,3_91 + x2,3_95
   + x2,3_96 + x2,4_3 + x2,4_9 + x2,4_10 + x2,4_31 + x2,4_34 + x2,4_50
   + x2,4_85 + x2,4_91 + x2,4_95 + x2,4_96 + x2,5_3 + x2,5_9 + x2,5_10
   + x2,5_31 + x2,5_34 + x2,5_50 + x2,5_85 + x2,5_91 + x2,5_95 + x2,5_96
   + x2,6_3 + x2,6_9 + x2,6_10 + x2,6_31 + x2,6_34 + x2,6_50 + x2,6_85
   + x2,6_91 + x2,6_95 + x2,6_96 + x3,4_3 + x3,4_9 + x3,4_10 + x3,4_31
   + x3,4_34 + x3,4_50 + x3,4_85 + x3,4_91 + x3,4_95 + x3,4_96 + x3,5_3
   + x3,5_9 + x3,5_10 + x3,5_31 + x3,5_34 + x3,5_50 + x3,5_85 + x3,5_91
   + x3,5_95 + x3,5_96 + x3,6_3 + x3,6_9 + x3,6_10 + x3,6_31 + x3,6_34
   + x3,6_50 + x3,6_85 + x3,6_91 + x3,6_95 + x3,6_96 + x4,5_3 + x4,5_9
   + x4,5_10 + x4,5_31 + x4,5_34 + x4,5_50 + x4,5_85 + x4,5_91 + x4,5_95
   + x4,5_96 + x4,6_3 + x4,6_9 + x4,6_10 + x4,6_31 + x4,6_34 + x4,6_50
   + x4,6_85 + x4,6_91 + x4,6_95 + x4,6_96 + x5,6_3 + x5,6_9 + x5,6_10
   + x5,6_31 + x5,6_34 + x5,6_50 + x5,6_85 + x5,6_91 + x5,6_95 + x5,6_96
Subject To
 R0: x0,1_3 + x0,2_3 + x0,3_3 + x0,4_3 + x0,5_3 + x0,6_3 + x1,2_3 + x1,3_3
   + x1,4_3 + x1,5_3 + x1,6_3 + x2,3_3 + x2,4_3 + x2,5_3 + x2,6_3 + x3,4_3
   + x3,5_3 + x3,6_3 + x4,5_3 + x4,6_3 + x5,6_3 <= 1
 R1: x0,1_9 + x0,2_9 + x0,3_9 + x0,4_9 + x0,5_9 + x0,6_9 + x1,2_9 + x1,3_9
   + x1,4_9 + x1,5_9 + x1,6_9 + x2,3_9 + x2,4_9 + x2,5_9 + x2,6_9 + x3,4_9
   + x3,5_9 + x3,6_9 + x4,5_9 + x4,6_9 + x5,6_9 <= 1
 R2: x0,1_10 + x0,2_10 + x0,3_10 + x0,4_10 + x0,5_10 + x0,6_10 + x1,2_10
   + x1,3_10 + x1,4_10 + x1,5_10 + x1,6_10 + x2,3_10 + x2,4_10 + x2,5_10
   + x2,6_10 + x3,4_10 + x3,5_10 + x3,6_10 + x4,5_10 + x4,6_10 + x5,6_10
   <= 1
 R3: x0,1_31 + x0,2_31 + x0,3_31 + x0,4_31 + x0,5_31 + x0,6_31 + x1,2_31
   + x1,3_31 + x1,4_31 + x1,5_31 + x1,6_31 + x2,3_31 + x2,4_31 + x2,5_31
   + x2,6_31 + x3,4_31 + x3,5_31 + x3,6_31 + x4,5_31 + x4,6_31 + x5,6_31
   <= 1
 R4: x0,1_34 + x0,2_34 + x0,3_34 + x0,4_34 + x0,5_34 + x0,6_34 + x1,2_34
   + x1,3_34 + x1,4_34 + x1,5_34 + x1,6_34 + x2,3_34 + x2,4_34 + x2,5_34
   + x2,6_34 + x3,4_34 + x3,5_34 + x3,6_34 + x4,5_34 + x4,6_34 + x5,6_34
   <= 1
 R5: x0,1_50 + x0,2_50 + x0,3_50 + x0,4_50 + x0,5_50 + x0,6_50 + x1,2_50
   + x1,3_50 + x1,4_50 + x1,5_50 + x1,6_50 + x2,3_50 + x2,4_50 + x2,5_50
   + x2,6_50 + x3,4_50 + x3,5_50 + x3,6_50 + x4,5_50 + x4,6_50 + x5,6_50
   <= 1
 R6: x0,1_85 + x0,2_85 + x0,3_85 + x0,4_85 + x0,5_85 + x0,6_85 + x1,2_85
   + x1,3_85 + x1,4_85 + x1,5_85 + x1,6_85 + x2,3_85 + x2,4_85 + x2,5_85
   + x2,6_85 + x3,4_85 + x3,5_85 + x3,6_85 + x4,5_85 + x4,6_85 + x5,6_85
   <= 1
 R7: x0,1_91 + x0,2_91 + x0,3_91 + x0,4_91 + x0,5_91 + x0,6_91 + x1,2_91
   + x1,3_91 + x1,4_91 + x1,5_91 + x1,6_91 + x2,3_91 + x2,4_91 + x2,5_91
   + x2,6_91 + x3,4_91 + x3,5_91 + x3,6_91 + x4,5_91 + x4,6_91 + x5,6_91
   <= 1
 R8: x0,1_95 + x0,2_95 + x0,3_95 + x0,4_95 + x0,5_95 + x0,6_95 + x1,2_95
   + x1,3_95 + x1,4_95 + x1,5_95 + x1,6_95 + x2,3_95 + x2,4_95 + x2,5_95
   + x2,6_95 + x3,4_95 + x3,5_95 + x3,6_95 + x4,5_95 + x4,6_95 + x5,6_95
   <= 1
 R9: x0,1_96 + x0,2_96 + x0,3_96 + x0,4_96 + x0,5_96 + x0,6_96 + x1,2_96
   + x1,3_96 + x1,4_96 + x1,5_96 + x1,6_96 + x2,3_96 + x2,4_96 + x2,5_96
   + x2,6_96 + x3,4_96 + x3,5_96 + x3,6_96 + x4,5_96 + x4,6_96 + x5,6_96
   <= 1
 R10: x0,1_3 + x0,1_9 + x0,1_10 + x0,1_31 + x0,1_34 + x0,1_50 + x0,1_85
   + x0,1_91 + x0,1_95 + x0,1_96 <= 1
 R11: x0,2_3 + x0,2_9 + x0,2_10 + x0,2_31 + x0,2_34 + x0,2_50 + x0,2_85
   + x0,2_91 + x0,2_95 + x0,2_96 <= 1
 R12: x0,3_3 + x0,3_9 + x0,3_10 + x0,3_31 + x0,3_34 + x0,3_50 + x0,3_85
   + x0,3_91 + x0,3_95 + x0,3_96 <= 1
 R13: x0,4_3 + x0,4_9 + x0,4_10 + x0,4_31 + x0,4_34 + x0,4_50 + x0,4_85
   + x0,4_91 + x0,4_95 + x0,4_96 <= 1
 R14: x0,5_3 + x0,5_9 + x0,5_10 + x0,5_31 + x0,5_34 + x0,5_50 + x0,5_85
   + x0,5_91 + x0,5_95 + x0,5_96 <= 1
 R15: x0,6_3 + x0,6_9 + x0,6_10 + x0,6_31 + x0,6_34 + x0,6_50 + x0,6_85
   + x0,6_91 + x0,6_95 + x0,6_96 <= 1
 R16: x1,2_3 + x1,2_9 + x1,2_10 + x1,2_31 + x1,2_34 + x1,2_50 + x1,2_85
   + x1,2_91 + x1,2_95 + x1,2_96 <= 1
 R17: x1,3_3 + x1,3_9 + x1,3_10 + x1,3_31 + x1,3_34 + x1,3_50 + x1,3_85
   + x1,3_91 + x1,3_95 + x1,3_96 <= 1
 R18: x1,4_3 + x1,4_9 + x1,4_10 + x1,4_31 + x1,4_34 + x1,4_50 + x1,4_85
   + x1,4_91 + x1,4_95 + x1,4_96 <= 1
 R19: x1,5_3 + x1,5_9 + x1,5_10 + x1,5_31 + x1,5_34 + x1,5_50 + x1,5_85
   + x1,5_91 + x1,5_95 + x1,5_96 <= 1
 R20: x1,6_3 + x1,6_9 + x1,6_10 + x1,6_31 + x1,6_34 + x1,6_50 + x1,6_85
   + x1,6_91 + x1,6_95 + x1,6_96 <= 1
 R21: x2,3_3 + x2,3_9 + x2,3_10 + x2,3_31 + x2,3_34 + x2,3_50 + x2,3_85
   + x2,3_91 + x2,3_95 + x2,3_96 <= 1
 R22: x2,4_3 + x2,4_9 + x2,4_10 + x2,4_31 + x2,4_34 + x2,4_50 + x2,4_85
   + x2,4_91 + x2,4_95 + x2,4_96 <= 1
 R23: x2,5_3 + x2,5_9 + x2,5_10 + x2,5_31 + x2,5_34 + x2,5_50 + x2,5_85
   + x2,5_91 + x2,5_95 + x2,5_96 <= 1
 R24: x2,6_3 + x2,6_9 + x2,6_10 + x2,6_31 + x2,6_34 + x2,6_50 + x2,6_85
   + x2,6_91 + x2,6_95 + x2,6_96 <= 1
 R25: x3,4_3 + x3,4_9 + x3,4_10 + x3,4_31 + x3,4_34 + x3,4_50 + x3,4_85
   + x3,4_91 + x3,4_95 + x3,4_96 <= 1
 R26: x3,5_3 + x3,5_9 + x3,5_10 + x3,5_31 + x3,5_34 + x3,5_50 + x3,5_85
   + x3,5_91 + x3,5_95 + x3,5_96 <= 1
 R27: x3,6_3 + x3,6_9 + x3,6_10 + x3,6_31 + x3,6_34 + x3,6_50 + x3,6_85
   + x3,6_91 + x3,6_95 + x3,6_96 <= 1
 R28: x4,5_3 + x4,5_9 + x4,5_10 + x4,5_31 + x4,5_34 + x4,5_50 + x4,5_85
   + x4,5_91 + x4,5_95 + x4,5_96 <= 1
 R29: x4,6_3 + x4,6_9 + x4,6_10 + x4,6_31 + x4,6_34 + x4,6_50 + x4,6_85
   + x4,6_91 + x4,6_95 + x4,6_96 <= 1
 R30: x5,6_3 + x5,6_9 + x5,6_10 + x5,6_31 + x5,6_34 + x5,6_50 + x5,6_85
   + x5,6_91 + x5,6_95 + x5,6_96 <= 1
 R31: p0 - p1 <= -1
 R32: - 3 x0,1_3 - p0 + p1 >= 0
 R33: 504 x0,1_3 - p0 + p1 <= 507
 R34: - 9 x0,1_9 - p0 + p1 >= 0
 R35: 504 x0,1_9 - p0 + p1 <= 513
 R36: - 10 x0,1_10 - p0 + p1 >= 0
 R37: 504 x0,1_10 - p0 + p1 <= 514
 R38: - 31 x0,1_31 - p0 + p1 >= 0
 R39: 504 x0,1_31 - p0 + p1 <= 535
 R40: - 34 x0,1_34 - p0 + p1 >= 0
 R41: 504 x0,1_34 - p0 + p1 <= 538
 R42: - 50 x0,1_50 - p0 + p1 >= 0
 R43: 504 x0,1_50 - p0 + p1 <= 554
 R44: - 85 x0,1_85 - p0 + p1 >= 0
 R45: 504 x0,1_85 - p0 + p1 <= 589
 R46: - 91 x0,1_91 - p0 + p1 >= 0
 R47: 504 x0,1_91 - p0 + p1 <= 595
 R48: - 95 x0,1_95 - p0 + p1 >= 0
 R49: 504 x0,1_95 - p0 + p1 <= 599
 R50: - 96 x0,1_96 - p0 + p1 >= 0
 R51: 504 x0,1_96 - p0 + p1 <= 600
 R52: p0 - p2 <= -1
 R53: - 3 x0,2_3 - p0 + p2 >= 0
 R54: 504 x0,2_3 - p0 + p2 <= 507
 R55: - 9 x0,2_9 - p0 + p2 >= 0
 R56: 504 x0,2_9 - p0 + p2 <= 513
 R57: - 10 x0,2_10 - p0 + p2 >= 0
 R58: 504 x0,2_10 - p0 + p2 <= 514
 R59: - 31 x0,2_31 - p0 + p2 >= 0
 R60: 504 x0,2_31 - p0 + p2 <= 535
 R61: - 34 x0,2_34 - p0 + p2 >= 0
 R62: 504 x0,2_34 - p0 + p2 <= 538
 R63: - 50 x0,2_50 - p0 + p2 >= 0
 R64: 504 x0,2_50 - p0 + p2 <= 554
 R65: - 85 x0,2_85 - p0 + p2 >= 0
 R66: 504 x0,2_85 - p0 + p2 <= 589
 R67: - 91 x0,2_91 - p0 + p2 >= 0
 R68: 504 x0,2_91 - p0 + p2 <= 595
 R69: - 95 x0,2_95 - p0 + p2 >= 0
 R70: 504 x0,2_95 - p0 + p2 <= 599
 R71: - 96 x0,2_96 - p0 + p2 >= 0
 R72: 504 x0,2_96 - p0 + p2 <= 600
 R73: p0 - p3 <= -1
 R74: - 3 x0,3_3 - p0 + p3 >= 0
 R75: 504 x0,3_3 - p0 + p3 <= 507
 R76: - 9 x0,3_9 - p0 + p3 >= 0
 R77: 504 x0,3_9 - p0 + p3 <= 513
 R78: - 10 x0,3_10 - p0 + p3 >= 0
 R79: 504 x0,3_10 - p0 + p3 <= 514
 R80: - 31 x0,3_31 - p0 + p3 >= 0
 R81: 504 x0,3_31 - p0 + p3 <= 535
 R82: - 34 x0,3_34 - p0 + p3 >= 0
 R83: 504 x0,3_34 - p0 + p3 <= 538
 R84: - 50 x0,3_50 - p0 + p3 >= 0
 R85: 504 x0,3_50 - p0 + p3 <= 554
 R86: - 85 x0,3_85 - p0 + p3 >= 0
 R87: 504 x0,3_85 - p0 + p3 <= 589
 R88: - 91 x0,3_91 - p0 + p3 >= 0
 R89: 504 x0,3_91 - p0 + p3 <= 595
 R90: - 95 x0,3_95 - p0 + p3 >= 0
 R91: 504 x0,3_95 - p0 + p3 <= 599
 R92: - 96 x0,3_96 - p0 + p3 >= 0
 R93: 504 x0,3_96 - p0 + p3 <= 600
 R94: p0 - p4 <= -1
 R95: - 3 x0,4_3 - p0 + p4 >= 0
 R96: 504 x0,4_3 - p0 + p4 <= 507
 R97: - 9 x0,4_9 - p0 + p4 >= 0
 R98: 504 x0,4_9 - p0 + p4 <= 513
 R99: - 10 x0,4_10 - p0 + p4 >= 0
 R100: 504 x0,4_10 - p0 + p4 <= 514
 R101: - 31 x0,4_31 - p0 + p4 >= 0
 R102: 504 x0,4_31 - p0 + p4 <= 535
 R103: - 34 x0,4_34 - p0 + p4 >= 0
 R104: 504 x0,4_34 - p0 + p4 <= 538
 R105: - 50 x0,4_50 - p0 + p4 >= 0
 R106: 504 x0,4_50 - p0 + p4 <= 554
 R107: - 85 x0,4_85 - p0 + p4 >= 0
 R108: 504 x0,4_85 - p0 + p4 <= 589
 R109: - 91 x0,4_91 - p0 + p4 >= 0
 R110: 504 x0,4_91 - p0 + p4 <= 595
 R111: - 95 x0,4_95 - p0 + p4 >= 0
 R112: 504 x0,4_95 - p0 + p4 <= 599
 R113: - 96 x0,4_96 - p0 + p4 >= 0
 R114: 504 x0,4_96 - p0 + p4 <= 600
 R115: p0 - p5 <= -1
 R116: - 3 x0,5_3 - p0 + p5 >= 0
 R117: 504 x0,5_3 - p0 + p5 <= 507
 R118: - 9 x0,5_9 - p0 + p5 >= 0
 R119: 504 x0,5_9 - p0 + p5 <= 513
 R120: - 10 x0,5_10 - p0 + p5 >= 0
 R121: 504 x0,5_10 - p0 + p5 <= 514
 R122: - 31 x0,5_31 - p0 + p5 >= 0
 R123: 504 x0,5_31 - p0 + p5 <= 535
 R124: - 34 x0,5_34 - p0 + p5 >= 0
 R125: 504 x0,5_34 - p0 + p5 <= 538
 R126: - 50 x0,5_50 - p0 + p5 >= 0
 R127: 504 x0,5_50 - p0 + p5 <= 554
 R128: - 85 x0,5_85 - p0 + p5 >= 0
 R129: 504 x0,5_85 - p0 + p5 <= 589
 R130: - 91 x0,5_91 - p0 + p5 >= 0
 R131: 504 x0,5_91 - p0 + p5 <= 595
 R132: - 95 x0,5_95 - p0 + p5 >= 0
 R133: 504 x0,5_95 - p0 + p5 <= 599
 R134: - 96 x0,5_96 - p0 + p5 >= 0
 R135: 504 x0,5_96 - p0 + p5 <= 600
 R136: p0 - p6 <= -1
 R137: - 3 x0,6_3 - p0 + p6 >= 0
 R138: 504 x0,6_3 - p0 + p6 <= 507
 R139: - 9 x0,6_9 - p0 + p6 >= 0
 R140: 504 x0,6_9 - p0 + p6 <= 513
 R141: - 10 x0,6_10 - p0 + p6 >= 0
 R142: 504 x0,6_10 - p0 + p6 <= 514
 R143: - 31 x0,6_31 - p0 + p6 >= 0
 R144: 504 x0,6_31 - p0 + p6 <= 535
 R145: - 34 x0,6_34 - p0 + p6 >= 0
 R146: 504 x0,6_34 - p0 + p6 <= 538
 R147: - 50 x0,6_50 - p0 + p6 >= 0
 R148: 504 x0,6_50 - p0 + p6 <= 554
 R149: - 85 x0,6_85 - p0 + p6 >= 0
 R150: 504 x0,6_85 - p0 + p6 <= 589
 R151: - 91 x0,6_91 - p0 + p6 >= 0
 R152: 504 x0,6_91 - p0 + p6 <= 595
 R153: - 95 x0,6_95 - p0 + p6 >= 0
 R154: 504 x0,6_95 - p0 + p6 <= 599
 R155: - 96 x0,6_96 - p0 + p6 >= 0
 R156: 504 x0,6_96 - p0 + p6 <= 600
 R157: p1 - p2 <= -1
 R158: - 3 x1,2_3 - p1 + p2 >= 0
 R159: 504 x1,2_3 - p1 + p2 <= 507
 R160: - 9 x1,2_9 - p1 + p2 >= 0
 R161: 504 x1,2_9 - p1 + p2 <= 513
 R162: - 10 x1,2_10 - p1 + p2 >= 0
 R163: 504 x1,2_10 - p1 + p2 <= 514
 R164: - 31 x1,2_31 - p1 + p2 >= 0
 R165: 504 x1,2_31 - p1 + p2 <= 535
 R166: - 34 x1,2_34 - p1 + p2 >= 0
 R167: 504 x1,2_34 - p1 + p2 <= 538
 R168: - 50 x1,2_50 - p1 + p2 >= 0
 R169: 504 x1,2_50 - p1 + p2 <= 554
 R170: - 85 x1,2_85 - p1 + p2 >= 0
 R171: 504 x1,2_85 - p1 + p2 <= 589
 R172: - 91 x1,2_91 - p1 + p2 >= 0
 R173: 504 x1,2_91 - p1 + p2 <= 595
 R174: - 95 x1,2_95 - p1 + p2 >= 0
 R175: 504 x1,2_95 - p1 + p2 <= 599
 R176: - 96 x1,2_96 - p1 + p2 >= 0
 R177: 504 x1,2_96 - p1 + p2 <= 600
 R178: p1 - p3 <= -1
 R179: - 3 x1,3_3 - p1 + p3 >= 0
 R180: 504 x1,3_3 - p1 + p3 <= 507
 R181: - 9 x1,3_9 - p1 + p3 >= 0
 R182: 504 x1,3_9 - p1 + p3 <= 513
 R183: - 10 x1,3_10 - p1 + p3 >= 0
 R184: 504 x1,3_10 - p1 + p3 <= 514
 R185: - 31 x1,3_31 - p1 + p3 >= 0
 R186: 504 x1,3_31 - p1 + p3 <= 535
 R187: - 34 x1,3_34 - p1 + p3 >= 0
 R188: 504 x1,3_34 - p1 + p3 <= 538
 R189: - 50 x1,3_50 - p1 + p3 >= 0
 R190: 504 x1,3_50 - p1 + p3 <= 554
 R191: - 85 x1,3_85 - p1 + p3 >= 0
 R192: 504 x1,3_85 - p1 + p3 <= 589
 R193: - 91 x1,3_91 - p1 + p3 >= 0
 R194: 504 x1,3_91 - p1 + p3 <= 595
 R195: - 95 x1,3_95 - p1 + p3 >= 0
 R196: 504 x1,3_95 - p1 + p3 <= 599
 R197: - 96 x1,3_96 - p1 + p3 >= 0
 R198: 504 x1,3_96 - p1 + p3 <= 600
 R199: p1 - p4 <= -1
 R200: - 3 x1,4_3 - p1 + p4 >= 0
 R201: 504 x1,4_3 - p1 + p4 <= 507
 R202: - 9 x1,4_9 - p1 + p4 >= 0
 R203: 504 x1,4_9 - p1 + p4 <= 513
 R204: - 10 x1,4_10 - p1 + p4 >= 0
 R205: 504 x1,4_10 - p1 + p4 <= 514
 R206: - 31 x1,4_31 - p1 + p4 >= 0
 R207: 504 x1,4_31 - p1 + p4 <= 535
 R208: - 34 x1,4_34 - p1 + p4 >= 0
 R209: 504 x1,4_34 - p1 + p4 <= 538
 R210: - 50 x1,4_50 - p1 + p4 >= 0
 R211: 504 x1,4_50 - p1 + p4 <= 554
 R212: - 85 x1,4_85 - p1 + p4 >= 0
 R213: 504 x1,4_85 - p1 + p4 <= 589
 R214: - 91 x1,4_91 - p1 + p4 >= 0
 R215: 504 x1,4_91 - p1 + p4 <= 595
 R216: - 95 x1,4_95 - p1 + p4 >= 0
 R217: 504 x1,4_95 - p1 + p4 <= 599
 R218: - 96 x1,4_96 - p1 + p4 >= 0
 R219: 504 x1,4_96 - p1 + p4 <= 600
 R220: p1 - p5 <= -1
 R221: - 3 x1,5_3 - p1 + p5 >= 0
 R222: 504 x1,5_3 - p1 + p5 <= 507
 R223: - 9 x1,5_9 - p1 + p5 >= 0
 R224: 504 x1,5_9 - p1 + p5 <= 513
 R225: - 10 x1,5_10 - p1 + p5 >= 0
 R226: 504 x1,5_10 - p1 + p5 <= 514
 R227: - 31 x1,5_31 - p1 + p5 >= 0
 R228: 504 x1,5_31 - p1 + p5 <= 535
 R229: - 34 x1,5_34 - p1 + p5 >= 0
 R230: 504 x1,5_34 - p1 + p5 <= 538
 R231: - 50 x1,5_50 - p1 + p5 >= 0
 R232: 504 x1,5_50 - p1 + p5 <= 554
 R233: - 85 x1,5_85 - p1 + p5 >= 0
 R234: 504 x1,5_85 - p1 + p5 <= 589
 R235: - 91 x1,5_91 - p1 + p5 >= 0
 R236: 504 x1,5_91 - p1 + p5 <= 595
 R237: - 95 x1,5_95 - p1 + p5 >= 0
 R238: 504 x1,5_95 - p1 + p5 <= 599
 R239: - 96 x1,5_96 - p1 + p5 >= 0
 R240: 504 x1,5_96 - p1 + p5 <= 600
 R241: p1 - p6 <= -1
 R242: - 3 x1,6_3 - p1 + p6 >= 0
 R243: 504 x1,6_3 - p1 + p6 <= 507
 R244: - 9 x1,6_9 - p1 + p6 >= 0
 R245: 504 x1,6_9 - p1 + p6 <= 513
 R246: - 10 x1,6_10 - p1 + p6 >= 0
 R247: 504 x1,6_10 - p1 + p6 <= 514
 R248: - 31 x1,6_31 - p1 + p6 >= 0
 R249: 504 x1,6_31 - p1 + p6 <= 535
 R250: - 34 x1,6_34 - p1 + p6 >= 0
 R251: 504 x1,6_34 - p1 + p6 <= 538
 R252: - 50 x1,6_50 - p1 + p6 >= 0
 R253: 504 x1,6_50 - p1 + p6 <= 554
 R254: - 85 x1,6_85 - p1 + p6 >= 0
 R255: 504 x1,6_85 - p1 + p6 <= 589
 R256: - 91 x1,6_91 - p1 + p6 >= 0
 R257: 504 x1,6_91 - p1 + p6 <= 595
 R258: - 95 x1,6_95 - p1 + p6 >= 0
 R259: 504 x1,6_95 - p1 + p6 <= 599
 R260: - 96 x1,6_96 - p1 + p6 >= 0
 R261: 504 x1,6_96 - p1 + p6 <= 600
 R262: p2 - p3 <= -1
 R263: - 3 x2,3_3 - p2 + p3 >= 0
 R264: 504 x2,3_3 - p2 + p3 <= 507
 R265: - 9 x2,3_9 - p2 + p3 >= 0
 R266: 504 x2,3_9 - p2 + p3 <= 513
 R267: - 10 x2,3_10 - p2 + p3 >= 0
 R268: 504 x2,3_10 - p2 + p3 <= 514
 R269: - 31 x2,3_31 - p2 + p3 >= 0
 R270: 504 x2,3_31 - p2 + p3 <= 535
 R271: - 34 x2,3_34 - p2 + p3 >= 0
 R272: 504 x2,3_34 - p2 + p3 <= 538
 R273: - 50 x2,3_50 - p2 + p3 >= 0
 R274: 504 x2,3_50 - p2 + p3 <= 554
 R275: - 85 x2,3_85 - p2 + p3 >= 0
 R276: 504 x2,3_85 - p2 + p3 <= 589
 R277: - 91 x2,3_91 - p2 + p3 >= 0
 R278: 504 x2,3_91 - p2 + p3 <= 595
 R279: - 95 x2,3_95 - p2 + p3 >= 0
 R280: 504 x2,3_95 - p2 + p3 <= 599
 R281: - 96 x2,3_96 - p2 + p3 >= 0
 R282: 504 x2,3_96 - p2 + p3 <= 600
 R283: p2 - p4 <= -1
 R284: - 3 x2,4_3 - p2 + p4 >= 0
 R285: 504 x2,4_3 - p2 + p4 <= 507
 R286: - 9 x2,4_9 - p2 + p4 >= 0
 R287: 504 x2,4_9 - p2 + p4 <= 513
 R288: - 10 x2,4_10 - p2 + p4 >= 0
 R289: 504 x2,4_10 - p2 + p4 <= 514
 R290: - 31 x2,4_31 - p2 + p4 >= 0
 R291: 504 x2,4_31 - p2 + p4 <= 535
 R292: - 34 x2,4_34 - p2 + p4 >= 0
 R293: 504 x2,4_34 - p2 + p4 <= 538
 R294: - 50 x2,4_50 - p2 + p4 >= 0
 R295: 504 x2,4_50 - p2 + p4 <= 554
 R296: - 85 x2,4_85 - p2 + p4 >= 0
 R297: 504 x2,4_85 - p2 + p4 <= 589
 R298: - 91 x2,4_91 - p2 + p4 >= 0
 R299: 504 x2,4_91 - p2 + p4 <= 595
 R300: - 95 x2,4_95 - p2 + p4 >= 0
 R301: 504 x2,4_95 - p2 + p4 <= 599
 R302: - 96 x2,4_96 - p2 + p4 >= 0
 R303: 504 x2,4_96 - p2 + p4 <= 600
 R304: p2 - p5 <= -1
 R305: - 3 x2,5_3 - p2 + p5 >= 0
 R306: 504 x2,5_3 - p2 + p5 <= 507
 R307: - 9 x2,5_9 - p2 + p5 >= 0
 R308: 504 x2,5_9 - p2 + p5 <= 513
 R309: - 10 x2,5_10 - p2 + p5 >= 0
 R310: 504 x2,5_10 - p2 + p5 <= 514
 R311: - 31 x2,5_31 - p2 + p5 >= 0
 R312: 504 x2,5_31 - p2 + p5 <= 535
 R313: - 34 x2,5_34 - p2 + p5 >= 0
 R314: 504 x2,5_34 - p2 + p5 <= 538
 R315: - 50 x2,5_50 - p2 + p5 >= 0
 R316: 504 x2,5_50 - p2 + p5 <= 554
 R317: - 85 x2,5_85 - p2 + p5 >= 0
 R318: 504 x2,5_85 - p2 + p5 <= 589
 R319: - 91 x2,5_91 - p2 + p5 >= 0
 R320: 504 x2,5_91 - p2 + p5 <= 595
 R321: - 95 x2,5_95 - p2 + p5 >= 0
 R322: 504 x2,5_95 - p2 + p5 <= 599
 R323: - 96 x2,5_96 - p2 + p5 >= 0
 R324: 504 x2,5_96 - p2 + p5 <= 600
 R325: p2 - p6 <= -1
 R326: - 3 x2,6_3 - p2 + p6 >= 0
 R327: 504 x2,6_3 - p2 + p6 <= 507
 R328: - 9 x2,6_9 - p2 + p6 >= 0
 R329: 504 x2,6_9 - p2 + p6 <= 513
 R330: - 10 x2,6_10 - p2 + p6 >= 0
 R331: 504 x2,6_10 - p2 + p6 <= 514
 R332: - 31 x2,6_31 - p2 + p6 >= 0
 R333: 504 x2,6_31 - p2 + p6 <= 535
 R334: - 34 x2,6_34 - p2 + p6 >= 0
 R335: 504 x2,6_34 - p2 + p6 <= 538
 R336: - 50 x2,6_50 - p2 + p6 >= 0
 R337: 504 x2,6_50 - p2 + p6 <= 554
 R338: - 85 x2,6_85 - p2 + p6 >= 0
 R339: 504 x2,6_85 - p2 + p6 <= 589
 R340: - 91 x2,6_91 - p2 + p6 >= 0
 R341: 504 x2,6_91 - p2 + p6 <= 595
 R342: - 95 x2,6_95 - p2 + p6 >= 0
 R343: 504 x2,6_95 - p2 + p6 <= 599
 R344: - 96 x2,6_96 - p2 + p6 >= 0
 R345: 504 x2,6_96 - p2 + p6 <= 600
 R346: p3 - p4 <= -1
 R347: - 3 x3,4_3 - p3 + p4 >= 0
 R348: 504 x3,4_3 - p3 + p4 <= 507
 R349: - 9 x3,4_9 - p3 + p4 >= 0
 R350: 504 x3,4_9 - p3 + p4 <= 513
 R351: - 10 x3,4_10 - p3 + p4 >= 0
 R352: 504 x3,4_10 - p3 + p4 <= 514
 R353: - 31 x3,4_31 - p3 + p4 >= 0
 R354: 504 x3,4_31 - p3 + p4 <= 535
 R355: - 34 x3,4_34 - p3 + p4 >= 0
 R356: 504 x3,4_34 - p3 + p4 <= 538
 R357: - 50 x3,4_50 - p3 + p4 >= 0
 R358: 504 x3,4_50 - p3 + p4 <= 554
 R359: - 85 x3,4_85 - p3 + p4 >= 0
 R360: 504 x3,4_85 - p3 + p4 <= 589
 R361: - 91 x3,4_91 - p3 + p4 >= 0
 R362: 504 x3,4_91 - p3 + p4 <= 595
 R363: - 95 x3,4_95 - p3 + p4 >= 0
 R364: 504 x3,4_95 - p3 + p4 <= 599
 R365: - 96 x3,4_96 - p3 + p4 >= 0
 R366: 504 x3,4_96 - p3 + p4 <= 600
 R367: p3 - p5 <= -1
 R368: - 3 x3,5_3 - p3 + p5 >= 0
 R369: 504 x3,5_3 - p3 + p5 <= 507
 R370: - 9 x3,5_9 - p3 + p5 >= 0
 R371: 504 x3,5_9 - p3 + p5 <= 513
 R372: - 10 x3,5_10 - p3 + p5 >= 0
 R373: 504 x3,5_10 - p3 + p5 <= 514
 R374: - 31 x3,5_31 - p3 + p5 >= 0
 R375: 504 x3,5_31 - p3 + p5 <= 535
 R376: - 34 x3,5_34 - p3 + p5 >= 0
 R377: 504 x3,5_34 - p3 + p5 <= 538
 R378: - 50 x3,5_50 - p3 + p5 >= 0
 R379: 504 x3,5_50 - p3 + p5 <= 554
 R380: - 85 x3,5_85 - p3 + p5 >= 0
 R381: 504 x3,5_85 - p3 + p5 <= 589
 R382: - 91 x3,5_91 - p3 + p5 >= 0
 R383: 504 x3,5_91 - p3 + p5 <= 595
 R384: - 95 x3,5_95 - p3 + p5 >= 0
 R385: 504 x3,5_95 - p3 + p5 <= 599
 R386: - 96 x3,5_96 - p3 + p5 >= 0
 R387: 504 x3,5_96 - p3 + p5 <= 600
 R388: p3 - p6 <= -1
 R389: - 3 x3,6_3 - p3 + p6 >= 0
 R390: 504 x3,6_3 - p3 + p6 <= 507
 R391: - 9 x3,6_9 - p3 + p6 >= 0
 R392: 504 x3,6_9 - p3 + p6 <= 513
 R393: - 10 x3,6_10 - p3 + p6 >= 0
 R394: 504 x3,6_10 - p3 + p6 <= 514
 R395: - 31 x3,6_31 - p3 + p6 >= 0
 R396: 504 x3,6_31 - p3 + p6 <= 535
 R397: - 34 x3,6_34 - p3 + p6 >= 0
 R398: 504 x3,6_34 - p3 + p6 <= 538
 R399: - 50 x3,6_50 - p3 + p6 >= 0
 R400: 504 x3,6_50 - p3 + p6 <= 554
 R401: - 85 x3,6_85 - p3 + p6 >= 0
 R402: 504 x3,6_85 - p3 + p6 <= 589
 R403: - 91 x3,6_91 - p3 + p6 >= 0
 R404: 504 x3,6_91 - p3 + p6 <= 595
 R405: - 95 x3,6_95 - p3 + p6 >= 0
 R406: 504 x3,6_95 - p3 + p6 <= 599
 R407: - 96 x3,6_96 - p3 + p6 >= 0
 R408: 504 x3,6_96 - p3 + p6 <= 600
 R409: p4 - p5 <= -1
 R410: - 3 x4,5_3 - p4 + p5 >= 0
 R411: 504 x4,5_3 - p4 + p5 <= 507
 R412: - 9 x4,5_9 - p4 + p5 >= 0
 R413: 504 x4,5_9 - p4 + p5 <= 513
 R414: - 10 x4,5_10 - p4 + p5 >= 0
 R415: 504 x4,5_10 - p4 + p5 <= 514
 R416: - 31 x4,5_31 - p4 + p5 >= 0
 R417: 504 x4,5_31 - p4 + p5 <= 535
 R418: - 34 x4,5_34 - p4 + p5 >= 0
 R419: 504 x4,5_34 - p4 + p5 <= 538
 R420: - 50 x4,5_50 - p4 + p5 >= 0
 R421: 504 x4,5_50 - p4 + p5 <= 554
 R422: - 85 x4,5_85 - p4 + p5 >= 0
 R423: 504 x4,5_85 - p4 + p5 <= 589
 R424: - 91 x4,5_91 - p4 + p5 >= 0
 R425: 504 x4,5_91 - p4 + p5 <= 595
 R426: - 95 x4,5_95 - p4 + p5 >= 0
 R427: 504 x4,5_95 - p4 + p5 <= 599
 R428: - 96 x4,5_96 - p4 + p5 >= 0
 R429: 504 x4,5_96 - p4 + p5 <= 600
 R430: p4 - p6 <= -1
 R431: - 3 x4,6_3 - p4 + p6 >= 0
 R432: 504 x4,6_3 - p4 + p6 <= 507
 R433: - 9 x4,6_9 - p4 + p6 >= 0
 R434: 504 x4,6_9 - p4 + p6 <= 513
 R435: - 10 x4,6_10 - p4 + p6 >= 0
 R436: 504 x4,6_10 - p4 + p6 <= 514
 R437: - 31 x4,6_31 - p4 + p6 >= 0
 R438: 504 x4,6_31 - p4 + p6 <= 535
 R439: - 34 x4,6_34 - p4 + p6 >= 0
 R440: 504 x4,6_34 - p4 + p6 <= 538
 R441: - 50 x4,6_50 - p4 + p6 >= 0
 R442: 504 x4,6_50 - p4 + p6 <= 554
 R443: - 85 x4,6_85 - p4 + p6 >= 0
 R444: 504 x4,6_85 - p4 + p6 <= 589
 R445: - 91 x4,6_91 - p4 + p6 >= 0
 R446: 504 x4,6_91 - p4 + p6 <= 595
 R447: - 95 x4,6_95 - p4 + p6 >= 0
 R448: 504 x4,6_95 - p4 + p6 <= 599
 R449: - 96 x4,6_96 - p4 + p6 >= 0
 R450: 504 x4,6_96 - p4 + p6 <= 600
 R451: p5 - p6 <= -1
 R452: - 3 x5,6_3 - p5 + p6 >= 0
 R453: 504 x5,6_3 - p5 + p6 <= 507
 R454: - 9 x5,6_9 - p5 + p6 >= 0
 R455: 504 x5,6_9 - p5 + p6 <= 513
 R456: - 10 x5,6_10 - p5 + p6 >= 0
 R457: 504 x5,6_10 - p5 + p6 <= 514
 R458: - 31 x5,6_31 - p5 + p6 >= 0
 R459: 504 x5,6_31 - p5 + p6 <= 535
 R460: - 34 x5,6_34 - p5 + p6 >= 0
 R461: 504 x5,6_34 - p5 + p6 <= 538
 R462: - 50 x5,6_50 - p5 + p6 >= 0
 R463: 504 x5,6_50 - p5 + p6 <= 554
 R464: - 85 x5,6_85 - p5 + p6 >= 0
 R465: 504 x5,6_85 - p5 + p6 <= 589
 R466: - 91 x5,6_91 - p5 + p6 >= 0
 R467: 504 x5,6_91 - p5 + p6 <= 595
 R468: - 95 x5,6_95 - p5 + p6 >= 0
 R469: 504 x5,6_95 - p5 + p6 <= 599
 R470: - 96 x5,6_96 - p5 + p6 >= 0
 R471: 504 x5,6_96 - p5 + p6 <= 600
Bounds
Binaries
 x0,1_3 x0,1_9 x0,1_10 x0,1_31 x0,1_34 x0,1_50 x0,1_85 x0,1_91 x0,1_95
 x0,1_96 x0,2_3 x0,2_9 x0,2_10 x0,2_31 x0,2_34 x0,2_50 x0,2_85 x0,2_91
 x0,2_95 x0,2_96 x0,3_3 x0,3_9 x0,3_10 x0,3_31 x0,3_34 x0,3_50 x0,3_85
 x0,3_91 x0,3_95 x0,3_96 x0,4_3 x0,4_9 x0,4_10 x0,4_31 x0,4_34 x0,4_50
 x0,4_85 x0,4_91 x0,4_95 x0,4_96 x0,5_3 x0,5_9 x0,5_10 x0,5_31 x0,5_34
 x0,5_50 x0,5_85 x0,5_91 x0,5_95 x0,5_96 x0,6_3 x0,6_9 x0,6_10 x0,6_31
 x0,6_34 x0,6_50 x0,6_85 x0,6_91 x0,6_95 x0,6_96 x1,2_3 x1,2_9 x1,2_10
 x1,2_31 x1,2_34 x1,2_50 x1,2_85 x1,2_91 x1,2_95 x1,2_96 x1,3_3 x1,3_9
 x1,3_10 x1,3_31 x1,3_34 x1,3_50 x1,3_85 x1,3_91 x1,3_95 x1,3_96 x1,4_3
 x1,4_9 x1,4_10 x1,4_31 x1,4_34 x1,4_50 x1,4_85 x1,4_91 x1,4_95 x1,4_96
 x1,5_3 x1,5_9 x1,5_10 x1,5_31 x1,5_34 x1,5_50 x1,5_85 x1,5_91 x1,5_95
 x1,5_96 x1,6_3 x1,6_9 x1,6_10 x1,6_31 x1,6_34 x1,6_50 x1,6_85 x1,6_91
 x1,6_95 x1,6_96 x2,3_3 x2,3_9 x2,3_10 x2,3_31 x2,3_34 x2,3_50 x2,3_85
 x2,3_91 x2,3_95 x2,3_96 x2,4_3 x2,4_9 x2,4_10 x2,4_31 x2,4_34 x2,4_50
 x2,4_85 x2,4_91 x2,4_95 x2,4_96 x2,5_3 x2,5_9 x2,5_10 x2,5_31 x2,5_34
 x2,5_50 x2,5_85 x2,5_91 x2,5_95 x2,5_96 x2,6_3 x2,6_9 x2,6_10 x2,6_31
 x2,6_34 x2,6_50 x2,6_85 x2,6_91 x2,6_95 x2,6_96 x3,4_3 x3,4_9 x3,4_10
 x3,4_31 x3,4_34 x3,4_50 x3,4_85 x3,4_91 x3,4_95 x3,4_96 x3,5_3 x3,5_9
 x3,5_10 x3,5_31 x3,5_34 x3,5_50 x3,5_85 x3,5_91 x3,5_95 x3,5_96 x3,6_3
 x3,6_9 x3,6_10 x3,6_31 x3,6_34 x3,6_50 x3,6_85 x3,6_91 x3,6_95 x3,6_96
 x4,5_3 x4,5_9 x4,5_10 x4,5_31 x4,5_34 x4,5_50 x4,5_85 x4,5_91 x4,5_95
 x4,5_96 x4,6_3 x4,6_9 x4,6_10 x4,6_31 x4,6_34 x4,6_50 x4,6_85 x4,6_91
 x4,6_95 x4,6_96 x5,6_3 x5,6_9 x5,6_10 x5,6_31 x5,6_34 x5,6_50 x5,6_85
 x5,6_91 x5,6_95 x5,6_96
Generals
 p0 p1 p2 p3 p4 p5 p6
End
