logs/drand/max/drand-10-110-1.sol
# Objective value = 10
x0,1_3 0
x0,1_9 0
x0,1_10 0
x0,1_31 0
x0,1_34 0
x0,1_50 0
x0,1_85 0
x0,1_91 0
x0,1_95 0
x0,1_96 0
x0,2_3 0
x0,2_9 0
x0,2_10 0
x0,2_31 0
x0,2_34 0
x0,2_50 0
x0,2_85 0
x0,2_91 0
x0,2_95 0
x0,2_96 0
x0,3_3 0
x0,3_9 0
x0,3_10 0
x0,3_31 0
x0,3_34 0
x0,3_50 0
x0,3_85 0
x0,3_91 0
x0,3_95 0
x0,3_96 0
x0,4_3 0
x0,4_9 0
x0,4_10 0
x0,4_31 0
x0,4_34 0
x0,4_50 0
x0,4_85 0
x0,4_91 0
x0,4_95 1
x0,4_96 0
x0,5_3 0
x0,5_9 0
x0,5_10 0
x0,5_31 0
x0,5_34 0
x0,5_50 0
x0,5_85 0
x0,5_91 0
x0,5_95 0
x0,5_96 1
x0,6_3 0
x0,6_9 0
x0,6_10 0
x0,6_31 0
x0,6_34 0
x0,6_50 0
x0,6_85 0
x0,6_91 0
x0,6_95 0
x0,6_96 0
x1,2_3 1
x1,2_9 0
x1,2_10 0
x1,2_31 0
x1,2_34 0
x1,2_50 0
x1,2_85 0
x1,2_91 0
x1,2_95 0
x1,2_96 0
x1,3_3 0
x1,3_9 0
x1,3_10 0
x1,3_31 0
x1,3_34 1
x1,3_50 0
x1,3_85 0
x1,3_91 0
x1,3_95 0
x1,3_96 0
x1,4_3 0
x1,4_9 0
x1,4_10 0
x1,4_31 0
x1,4_34 0
x1,4_50 0
x1,4_85 0
x1,4_91 0
x1,4_95 0
x1,4_96 0
x1,5_3 0
x1,5_9 0
x1,5_10 0
x1,5_31 0
x1,5_34 0
x1,5_50 0
x1,5_85 1
x1,5_91 0
x1,5_95 0
x1,5_96 0
x1,6_3 0
x1,6_9 0
x1,6_10 0
x1,6_31 0
x1,6_34 0
x1,6_50 0
x1,6_85 0
x1,6_91 0
x1,6_95 0
x1,6_96 0
x2,3_3 0
x2,3_9 0
x2,3_10 0
x2,3_31 1
x2,3_34 0
x2,3_50 0
x2,3_85 0
x2,3_91 0
x2,3_95 0
x2,3_96 0
x2,4_3 0
x2,4_9 0
x2,4_10 0
x2,4_31 0
x2,4_34 0
x2,4_50 0
x2,4_85 0
x2,4_91 0
x2,4_95 0
x2,4_96 0
x2,5_3 0
x2,5_9 0
x2,5_10 0
x2,5_31 0
x2,5_34 0
x2,5_50 0
x2,5_85 0
x2,5_91 0
x2,5_95 0
x2,5_96 0
x2,6_3 0
x2,6_9 0
x2,6_10 0
x2,6_31 0
x2,6_34 0
x2,6_50 0
x2,6_85 0
x2,6_91 1
x2,6_95 0
x2,6_96 0
x3,4_3 0
x3,4_9 0
x3,4_10 0
x3,4_31 0
x3,4_34 0
x3,4_50 1
x3,4_85 0
x3,4_91 0
x3,4_95 0
x3,4_96 0
x3,5_3 0
x3,5_9 0
x3,5_10 0
x3,5_31 0
x3,5_34 0
x3,5_50 0
x3,5_85 0
x3,5_91 0
x3,5_95 0
x3,5_96 0
x3,6_3 0
x3,6_9 0
x3,6_10 0
x3,6_31 0
x3,6_34 0
x3,6_50 0
x3,6_85 0
x3,6_91 0
x3,6_95 0
x3,6_96 0
x4,5_3 0
x4,5_9 0
x4,5_10 0
x4,5_31 0
x4,5_34 0
x4,5_50 0
x4,5_85 0
x4,5_91 0
x4,5_95 0
x4,5_96 0
x4,6_3 0
x4,6_9 0
x4,6_10 1
x4,6_31 0
x4,6_34 0
x4,6_50 0
x4,6_85 0
x4,6_91 0
x4,6_95 0
x4,6_96 0
x5,6_3 0
x5,6_9 1
x5,6_10 0
x5,6_31 0
x5,6_34 0
x5,6_50 0
x5,6_85 0
x5,6_91 0
x5,6_95 0
x5,6_96 0
p0 0
p1 11
p2 14
p3 45
p4 95
p5 96
p6 105
