logs/drand/max/drand-10-110-1.log

Gurobi 8.1.1 (win64) logging started 11/23/19 15:51:16

Changed value of parameter LogFile to logs/drand/max/drand-10-110-1.log
   Prev: gurobi.log  Default: 
Changed value of parameter LogToConsole to 0
   Prev: 1  Min: 0  Max: 1  Default: 1
Changed value of parameter TimeLimit to 3600.0
   Prev: 1e+100  Min: 0.0  Max: 1e+100  Default: 1e+100
Optimize a model with 802 rows, 369 columns and 2952 nonzeros
Variable types: 0 continuous, 369 integer (360 binary)
Coefficient statistics:
  Matrix range     [1e+00, 5e+02]
  Objective range  [1e+00, 1e+00]
  Bounds range     [1e+00, 1e+00]
  RHS range        [1e+00, 6e+02]
Found heuristic solution: objective 1.0000000
Presolve time: 0.01s
Presolved: 802 rows, 369 columns, 2952 nonzeros
Variable types: 0 continuous, 369 integer (360 binary)

Root relaxation: objective 1.000000e+01, 92 iterations, 0.00 seconds

    Nodes    |    Current Node    |     Objective Bounds      |     Work
 Expl Unexpl |  Obj  Depth IntInf | Incumbent    BestBd   Gap | It/Node Time

H    0     0                      10.0000000  360.00000  3500%     -    0s
     0     0          -    0        10.00000   10.00000  0.00%     -    0s

Explored 0 nodes (358 simplex iterations) in 0.02 seconds
Thread count was 4 (of 4 available processors)

Solution count 2: 10 1 

Optimal solution found (tolerance 1.00e-04)
Best objective 1.000000000000e+01, best bound 1.000000000000e+01, gap 0.0000%

Gurobi 8.1.1 (win64) logging started 11/23/19 15:51:16

Changed value of parameter LogFile to logs/drand/max/drand-10-110-1.log
   Prev: gurobi.log  Default: 
Changed value of parameter LogToConsole to 0
   Prev: 1  Min: 0  Max: 1  Default: 1
Changed value of parameter TimeLimit to 3600.0
   Prev: 1e+100  Min: 0.0  Max: 1e+100  Default: 1e+100
Optimize a model with 472 rows, 217 columns and 1722 nonzeros
Variable types: 0 continuous, 217 integer (210 binary)
Coefficient statistics:
  Matrix range     [1e+00, 5e+02]
  Objective range  [1e+00, 1e+00]
  Bounds range     [1e+00, 1e+00]
  RHS range        [1e+00, 6e+02]
Found heuristic solution: objective 1.0000000
Presolve time: 0.01s
Presolved: 472 rows, 217 columns, 1722 nonzeros
Variable types: 0 continuous, 217 integer (210 binary)

Root relaxation: objective 1.000000e+01, 83 iterations, 0.00 seconds

    Nodes    |    Current Node    |     Objective Bounds      |     Work
 Expl Unexpl |  Obj  Depth IntInf | Incumbent    BestBd   Gap | It/Node Time

     0     0   10.00000    0    4    1.00000   10.00000   900%     -    0s
H    0     0                       8.0000000   10.00000  25.0%     -    0s
     0     0   10.00000    0   11    8.00000   10.00000  25.0%     -    0s
     0     0   10.00000    0    4    8.00000   10.00000  25.0%     -    0s
     0     0   10.00000    0    4    8.00000   10.00000  25.0%     -    0s
     0     0   10.00000    0    4    8.00000   10.00000  25.0%     -    0s
     0     0   10.00000    0    4    8.00000   10.00000  25.0%     -    0s
     0     0   10.00000    0    4    8.00000   10.00000  25.0%     -    0s
H    0     0                       9.0000000   10.00000  11.1%     -    0s
     0     2   10.00000    0    4    9.00000   10.00000  11.1%     -    0s
 27728  1405 infeasible   79         9.00000   10.00000  11.1%   6.2    5s
 82290  3579 infeasible   87         9.00000   10.00000  11.1%   5.2   10s
 135944  3409   10.00000   81    8    9.00000   10.00000  11.1%   4.9   15s
 186767  3208   10.00000   82    6    9.00000   10.00000  11.1%   4.9   20s
 240518  3172   10.00000   97    6    9.00000   10.00000  11.1%   4.8   25s
H276026     0                      10.0000000   10.00000  0.00%   4.7   28s

Cutting planes:
  Gomory: 4
  MIR: 5
  Flow cover: 30
  Inf proof: 16
  Zero half: 4

Explored 276117 nodes (1290181 simplex iterations) in 28.19 seconds
Thread count was 4 (of 4 available processors)

Solution count 4: 10 9 8 1 

Optimal solution found (tolerance 1.00e-04)
Best objective 1.000000000000e+01, best bound 1.000000000000e+01, gap 0.0000%

Gurobi 8.1.1 (win64) logging started 11/23/19 15:51:44

Changed value of parameter LogFile to logs/drand/max/drand-10-110-1.log
   Prev: gurobi.log  Default: 
Changed value of parameter LogToConsole to 0
   Prev: 1  Min: 0  Max: 1  Default: 1
Changed value of parameter TimeLimit to 3600.0
   Prev: 1e+100  Min: 0.0  Max: 1e+100  Default: 1e+100
Optimize a model with 340 rows, 156 columns and 1230 nonzeros
Variable types: 0 continuous, 156 integer (150 binary)
Coefficient statistics:
  Matrix range     [1e+00, 5e+02]
  Objective range  [1e+00, 1e+00]
  Bounds range     [1e+00, 1e+00]
  RHS range        [1e+00, 6e+02]
Found heuristic solution: objective 1.0000000
Presolve time: 0.01s
Presolved: 340 rows, 156 columns, 1230 nonzeros
Variable types: 0 continuous, 156 integer (150 binary)

Root relaxation: objective 1.000000e+01, 77 iterations, 0.00 seconds

    Nodes    |    Current Node    |     Objective Bounds      |     Work
 Expl Unexpl |  Obj  Depth IntInf | Incumbent    BestBd   Gap | It/Node Time

     0     0   10.00000    0    6    1.00000   10.00000   900%     -    0s
H    0     0                       7.0000000   10.00000  42.9%     -    0s
     0     0   10.00000    0   18    7.00000   10.00000  42.9%     -    0s
     0     0   10.00000    0    8    7.00000   10.00000  42.9%     -    0s
     0     0   10.00000    0    8    7.00000   10.00000  42.9%     -    0s
     0     0   10.00000    0    8    7.00000   10.00000  42.9%     -    0s
     0     0   10.00000    0    7    7.00000   10.00000  42.9%     -    0s
     0     0   10.00000    0    7    7.00000   10.00000  42.9%     -    0s
     0     0   10.00000    0    8    7.00000   10.00000  42.9%     -    0s
     0     0   10.00000    0    8    7.00000   10.00000  42.9%     -    0s
     0     2   10.00000    0    8    7.00000   10.00000  42.9%     -    0s
H 2269   540                       8.0000000   10.00000  25.0%   6.8    0s
 25195  6988    9.97865   53   14    8.00000   10.00000  25.0%   6.5    5s
 70314 15094 infeasible   65         8.00000   10.00000  25.0%   6.5   10s
 112192 21614   10.00000   41   11    8.00000   10.00000  25.0%   6.5   15s
 154099 27701 infeasible   46         8.00000   10.00000  25.0%   6.4   20s
 193779 33629   10.00000   46   15    8.00000   10.00000  25.0%   6.4   25s
 233029 38904 infeasible   38         8.00000   10.00000  25.0%   6.5   30s
 274804 44698   10.00000   43   10    8.00000   10.00000  25.0%   6.5   35s
 316711 48874     cutoff   54         8.00000   10.00000  25.0%   6.5   40s
 362207 48751    9.43158   68   10    8.00000    9.94792  24.3%   6.5   45s
 426410 44978     cutoff   49         8.00000    9.06250  13.3%   6.5   50s
 489308 31351 infeasible   61         8.00000    9.00000  12.5%   6.5   55s
 549302 16811 infeasible   59         8.00000    9.00000  12.5%   6.5   60s
 608418  2742 infeasible   59         8.00000    9.00000  12.5%   6.5   65s

Cutting planes:
  Gomory: 1
  MIR: 12
  StrongCG: 1
  Flow cover: 34
  Inf proof: 10
  Zero half: 2

Explored 620428 nodes (4061073 simplex iterations) in 66.05 seconds
Thread count was 4 (of 4 available processors)

Solution count 3: 8 7 1 

Optimal solution found (tolerance 1.00e-04)
Best objective 8.000000000000e+00, best bound 8.000000000000e+00, gap 0.0000%
